set Vertices := 18 24 25 26 27 28 29 30 31 32 33 34 35 36 ; 
param k := 24;
param m := 1;
set Edges := (18,24) (18,25) (18,26) (18,27) (18,28) (18,29) (18,30) (18,31) (18,32) (18,33) (18,34) (18,35) (18,36) ;
set EdgesPrime := (18,25) (18,26) (18,27) (18,28) (18,29) (18,30) (18,31) (18,32) (18,33) (18,34) (18,35) (18,36) ;
param u := 
18 24 2
18 25 17
18 26 14
18 27 8
18 28 4
18 29 7
18 30 3
18 31 12
18 32 6
18 33 10
18 34 5
18 35 1
18 36 9
; 
param w := 
18 1
24 1
25 2
26 2
27 2
28 4
29 4
30 1
31 2
32 2
33 1
34 1
35 1
36 1
;